
Gurobi 10.0.3 (linux64, gurobi_cl) logging started Wed Oct 25 15:13:15 2023

Set parameter Username
Set parameter LogFile to value "gurobi.log"

Gurobi 10.0.3 (linux64, gurobi_cl) logging started Wed Oct 25 15:14:00 2023

Set parameter Username
Set parameter LogFile to value "gurobi.log"
